Problem:    ModelGLPK_enduracidin_A
Rows:       167
Columns:    121 (121 integer, 121 binary)
Non-zeros:  992
Status:     INTEGER OPTIMAL
Objective:  number_of_installed_atoms = 166 (MAXimum)

   No.   Row name        Activity     Lower bound   Upper bound
------ ------------    ------------- ------------- -------------
     1 Atom_Owner[a0]
                                   1                           1 
     2 Atom_Owner[a1]
                                   1                           1 
     3 Atom_Owner[a2]
                                   1                           1 
     4 Atom_Owner[a3]
                                   1                           1 
     5 Atom_Owner[a4]
                                   1                           1 
     6 Atom_Owner[a5]
                                   1                           1 
     7 Atom_Owner[a6]
                                   1                           1 
     8 Atom_Owner[a7]
                                   1                           1 
     9 Atom_Owner[a8]
                                   1                           1 
    10 Atom_Owner[a9]
                                   1                           1 
    11 Atom_Owner[a10]
                                   1                           1 
    12 Atom_Owner[a11]
                                   1                           1 
    13 Atom_Owner[a12]
                                   1                           1 
    14 Atom_Owner[a13]
                                   1                           1 
    15 Atom_Owner[a14]
                                   1                           1 
    16 Atom_Owner[a15]
                                   1                           1 
    17 Atom_Owner[a16]
                                   1                           1 
    18 Atom_Owner[a17]
                                   1                           1 
    19 Atom_Owner[a18]
                                   1                           1 
    20 Atom_Owner[a19]
                                   1                           1 
    21 Atom_Owner[a20]
                                   1                           1 
    22 Atom_Owner[a21]
                                   1                           1 
    23 Atom_Owner[a22]
                                   1                           1 
    24 Atom_Owner[a23]
                                   1                           1 
    25 Atom_Owner[a24]
                                   1                           1 
    26 Atom_Owner[a25]
                                   1                           1 
    27 Atom_Owner[a26]
                                   1                           1 
    28 Atom_Owner[a27]
                                   1                           1 
    29 Atom_Owner[a28]
                                   1                           1 
    30 Atom_Owner[a29]
                                   1                           1 
    31 Atom_Owner[a30]
                                   1                           1 
    32 Atom_Owner[a31]
                                   1                           1 
    33 Atom_Owner[a32]
                                   1                           1 
    34 Atom_Owner[a33]
                                   1                           1 
    35 Atom_Owner[a34]
                                   1                           1 
    36 Atom_Owner[a35]
                                   1                           1 
    37 Atom_Owner[a36]
                                   1                           1 
    38 Atom_Owner[a37]
                                   1                           1 
    39 Atom_Owner[a38]
                                   1                           1 
    40 Atom_Owner[a39]
                                   1                           1 
    41 Atom_Owner[a40]
                                   1                           1 
    42 Atom_Owner[a41]
                                   1                           1 
    43 Atom_Owner[a42]
                                   1                           1 
    44 Atom_Owner[a43]
                                   1                           1 
    45 Atom_Owner[a44]
                                   1                           1 
    46 Atom_Owner[a45]
                                   1                           1 
    47 Atom_Owner[a46]
                                   1                           1 
    48 Atom_Owner[a47]
                                   1                           1 
    49 Atom_Owner[a48]
                                   1                           1 
    50 Atom_Owner[a49]
                                   1                           1 
    51 Atom_Owner[a50]
                                   1                           1 
    52 Atom_Owner[a51]
                                   1                           1 
    53 Atom_Owner[a52]
                                   1                           1 
    54 Atom_Owner[a53]
                                   1                           1 
    55 Atom_Owner[a54]
                                   1                           1 
    56 Atom_Owner[a55]
                                   1                           1 
    57 Atom_Owner[a56]
                                   1                           1 
    58 Atom_Owner[a57]
                                   1                           1 
    59 Atom_Owner[a58]
                                   1                           1 
    60 Atom_Owner[a59]
                                   1                           1 
    61 Atom_Owner[a60]
                                   1                           1 
    62 Atom_Owner[a61]
                                   1                           1 
    63 Atom_Owner[a62]
                                   1                           1 
    64 Atom_Owner[a63]
                                   1                           1 
    65 Atom_Owner[a64]
                                   1                           1 
    66 Atom_Owner[a65]
                                   1                           1 
    67 Atom_Owner[a66]
                                   1                           1 
    68 Atom_Owner[a67]
                                   1                           1 
    69 Atom_Owner[a68]
                                   1                           1 
    70 Atom_Owner[a69]
                                   1                           1 
    71 Atom_Owner[a70]
                                   1                           1 
    72 Atom_Owner[a71]
                                   1                           1 
    73 Atom_Owner[a72]
                                   1                           1 
    74 Atom_Owner[a73]
                                   1                           1 
    75 Atom_Owner[a74]
                                   1                           1 
    76 Atom_Owner[a75]
                                   1                           1 
    77 Atom_Owner[a76]
                                   1                           1 
    78 Atom_Owner[a77]
                                   1                           1 
    79 Atom_Owner[a78]
                                   1                           1 
    80 Atom_Owner[a79]
                                   1                           1 
    81 Atom_Owner[a80]
                                   1                           1 
    82 Atom_Owner[a81]
                                   1                           1 
    83 Atom_Owner[a82]
                                   1                           1 
    84 Atom_Owner[a83]
                                   1                           1 
    85 Atom_Owner[a84]
                                   1                           1 
    86 Atom_Owner[a85]
                                   1                           1 
    87 Atom_Owner[a86]
                                   1                           1 
    88 Atom_Owner[a87]
                                   1                           1 
    89 Atom_Owner[a88]
                                   1                           1 
    90 Atom_Owner[a89]
                                   1                           1 
    91 Atom_Owner[a90]
                                   1                           1 
    92 Atom_Owner[a91]
                                   1                           1 
    93 Atom_Owner[a92]
                                   1                           1 
    94 Atom_Owner[a93]
                                   1                           1 
    95 Atom_Owner[a94]
                                   1                           1 
    96 Atom_Owner[a95]
                                   1                           1 
    97 Atom_Owner[a96]
                                   1                           1 
    98 Atom_Owner[a97]
                                   1                           1 
    99 Atom_Owner[a98]
                                   1                           1 
   100 Atom_Owner[a99]
                                   1                           1 
   101 Atom_Owner[a100]
                                   1                           1 
   102 Atom_Owner[a101]
                                   1                           1 
   103 Atom_Owner[a102]
                                   1                           1 
   104 Atom_Owner[a103]
                                   1                           1 
   105 Atom_Owner[a104]
                                   1                           1 
   106 Atom_Owner[a105]
                                   1                           1 
   107 Atom_Owner[a106]
                                   1                           1 
   108 Atom_Owner[a107]
                                   1                           1 
   109 Atom_Owner[a108]
                                   1                           1 
   110 Atom_Owner[a109]
                                   1                           1 
   111 Atom_Owner[a110]
                                   1                           1 
   112 Atom_Owner[a111]
                                   1                           1 
   113 Atom_Owner[a112]
                                   1                           1 
   114 Atom_Owner[a113]
                                   1                           1 
   115 Atom_Owner[a114]
                                   1                           1 
   116 Atom_Owner[a115]
                                   1                           1 
   117 Atom_Owner[a116]
                                   1                           1 
   118 Atom_Owner[a117]
                                   1                           1 
   119 Atom_Owner[a118]
                                   1                           1 
   120 Atom_Owner[a119]
                                   1                           1 
   121 Atom_Owner[a120]
                                   1                           1 
   122 Atom_Owner[a121]
                                   1                           1 
   123 Atom_Owner[a122]
                                   1                           1 
   124 Atom_Owner[a123]
                                   1                           1 
   125 Atom_Owner[a124]
                                   1                           1 
   126 Atom_Owner[a125]
                                   1                           1 
   127 Atom_Owner[a126]
                                   1                           1 
   128 Atom_Owner[a127]
                                   1                           1 
   129 Atom_Owner[a128]
                                   1                           1 
   130 Atom_Owner[a129]
                                   1                           1 
   131 Atom_Owner[a130]
                                   1                           1 
   132 Atom_Owner[a131]
                                   1                           1 
   133 Atom_Owner[a132]
                                   1                           1 
   134 Atom_Owner[a133]
                                   1                           1 
   135 Atom_Owner[a134]
                                   1                           1 
   136 Atom_Owner[a135]
                                   1                           1 
   137 Atom_Owner[a136]
                                   1                           1 
   138 Atom_Owner[a137]
                                   1                           1 
   139 Atom_Owner[a138]
                                   1                           1 
   140 Atom_Owner[a139]
                                   1                           1 
   141 Atom_Owner[a140]
                                   1                           1 
   142 Atom_Owner[a141]
                                   1                           1 
   143 Atom_Owner[a142]
                                   1                           1 
   144 Atom_Owner[a143]
                                   1                           1 
   145 Atom_Owner[a144]
                                   1                           1 
   146 Atom_Owner[a145]
                                   1                           1 
   147 Atom_Owner[a146]
                                   1                           1 
   148 Atom_Owner[a147]
                                   1                           1 
   149 Atom_Owner[a148]
                                   1                           1 
   150 Atom_Owner[a149]
                                   1                           1 
   151 Atom_Owner[a150]
                                   1                           1 
   152 Atom_Owner[a151]
                                   1                           1 
   153 Atom_Owner[a152]
                                   1                           1 
   154 Atom_Owner[a153]
                                   1                           1 
   155 Atom_Owner[a154]
                                   1                           1 
   156 Atom_Owner[a155]
                                   1                           1 
   157 Atom_Owner[a156]
                                   1                           1 
   158 Atom_Owner[a157]
                                   1                           1 
   159 Atom_Owner[a158]
                                   1                           1 
   160 Atom_Owner[a159]
                                   1                           1 
   161 Atom_Owner[a160]
                                   1                           1 
   162 Atom_Owner[a161]
                                   1                           1 
   163 Atom_Owner[a162]
                                   1                           1 
   164 Atom_Owner[a163]
                                   1                           1 
   165 Atom_Owner[a164]
                                   1                           1 
   166 Atom_Owner[a165]
                                   1                           1 
   167 number_of_installed_atoms
                                 166                             

   No. Column name       Activity     Lower bound   Upper bound
------ ------------    ------------- ------------- -------------
     1 install[m0]  *              1             0             1 
     2 install[m1]  *              1             0             1 
     3 install[m2]  *              1             0             1 
     4 install[m3]  *              1             0             1 
     5 install[m4]  *              1             0             1 
     6 install[m5]  *              1             0             1 
     7 install[m6]  *              1             0             1 
     8 install[m7]  *              1             0             1 
     9 install[m8]  *              1             0             1 
    10 install[m9]  *              0             0             1 
    11 install[m10] *              0             0             1 
    12 install[m11] *              0             0             1 
    13 install[m12] *              0             0             1 
    14 install[m13] *              1             0             1 
    15 install[m14] *              1             0             1 
    16 install[m15] *              1             0             1 
    17 install[m16] *              1             0             1 
    18 install[m17] *              1             0             1 
    19 install[m18] *              0             0             1 
    20 install[m19] *              1             0             1 
    21 install[m20] *              1             0             1 
    22 install[m21] *              1             0             1 
    23 install[m22] *              1             0             1 
    24 install[m23] *              0             0             1 
    25 install[m24] *              0             0             1 
    26 install[m25] *              0             0             1 
    27 install[m26] *              0             0             1 
    28 install[m27] *              0             0             1 
    29 install[m28] *              0             0             1 
    30 install[m29] *              0             0             1 
    31 install[m30] *              0             0             1 
    32 install[m31] *              0             0             1 
    33 install[m32] *              0             0             1 
    34 install[m33] *              0             0             1 
    35 install[m34] *              0             0             1 
    36 install[m35] *              0             0             1 
    37 install[m36] *              0             0             1 
    38 install[m37] *              0             0             1 
    39 install[m38] *              0             0             1 
    40 install[m39] *              0             0             1 
    41 install[m40] *              0             0             1 
    42 install[m41] *              0             0             1 
    43 install[m42] *              0             0             1 
    44 install[m43] *              0             0             1 
    45 install[m44] *              0             0             1 
    46 install[m45] *              0             0             1 
    47 install[m46] *              0             0             1 
    48 install[m47] *              0             0             1 
    49 install[m48] *              0             0             1 
    50 install[m49] *              0             0             1 
    51 install[m50] *              0             0             1 
    52 install[m51] *              0             0             1 
    53 install[m52] *              0             0             1 
    54 install[m53] *              0             0             1 
    55 install[m54] *              0             0             1 
    56 install[m55] *              0             0             1 
    57 install[m56] *              0             0             1 
    58 install[m57] *              0             0             1 
    59 install[m58] *              0             0             1 
    60 install[m59] *              0             0             1 
    61 install[m60] *              0             0             1 
    62 install[m61] *              0             0             1 
    63 install[m62] *              0             0             1 
    64 install[m63] *              0             0             1 
    65 install[m64] *              0             0             1 
    66 install[m65] *              0             0             1 
    67 install[m66] *              0             0             1 
    68 install[m67] *              0             0             1 
    69 install[m68] *              0             0             1 
    70 install[m69] *              0             0             1 
    71 install[m70] *              0             0             1 
    72 install[m71] *              0             0             1 
    73 install[m72] *              0             0             1 
    74 install[m73] *              0             0             1 
    75 install[m74] *              0             0             1 
    76 install[m75] *              0             0             1 
    77 install[m76] *              0             0             1 
    78 install[m77] *              0             0             1 
    79 install[m78] *              0             0             1 
    80 install[m79] *              0             0             1 
    81 install[m80] *              0             0             1 
    82 install[m81] *              0             0             1 
    83 install[m82] *              0             0             1 
    84 install[m83] *              0             0             1 
    85 install[m84] *              0             0             1 
    86 install[m85] *              0             0             1 
    87 install[m86] *              0             0             1 
    88 install[m87] *              0             0             1 
    89 install[m88] *              0             0             1 
    90 install[m89] *              0             0             1 
    91 install[m90] *              0             0             1 
    92 install[m91] *              0             0             1 
    93 install[m92] *              0             0             1 
    94 install[m93] *              0             0             1 
    95 install[m94] *              0             0             1 
    96 install[m95] *              0             0             1 
    97 install[m96] *              0             0             1 
    98 install[m97] *              0             0             1 
    99 install[m98] *              0             0             1 
   100 install[m99] *              0             0             1 
   101 install[m100]
                    *              0             0             1 
   102 install[m101]
                    *              0             0             1 
   103 install[m102]
                    *              0             0             1 
   104 install[m103]
                    *              0             0             1 
   105 install[m104]
                    *              0             0             1 
   106 install[m105]
                    *              0             0             1 
   107 install[m106]
                    *              0             0             1 
   108 install[m107]
                    *              0             0             1 
   109 install[m108]
                    *              0             0             1 
   110 install[m109]
                    *              0             0             1 
   111 install[m110]
                    *              0             0             1 
   112 install[m111]
                    *              0             0             1 
   113 install[m112]
                    *              0             0             1 
   114 install[m113]
                    *              0             0             1 
   115 install[m114]
                    *              0             0             1 
   116 install[m115]
                    *              0             0             1 
   117 install[m116]
                    *              0             0             1 
   118 install[m117]
                    *              0             0             1 
   119 install[m118]
                    *              0             0             1 
   120 install[m119]
                    *              0             0             1 
   121 install[m120]
                    *              0             0             1 

Integer feasibility conditions:

KKT.PE: max.abs.err = 0.00e+00 on row 0
        max.rel.err = 0.00e+00 on row 0
        High quality

KKT.PB: max.abs.err = 0.00e+00 on row 0
        max.rel.err = 0.00e+00 on row 0
        High quality

End of output
